$instance size is  1000
letting capacity be  170674
letting items be new type enum { 
a1,a2,a3,a4,a5,a6,a7,a8,a9,a10,a11,a12,a13,a14,a15,a16,a17,a18,a19,a20,a21,a22,a23,a24,a25,a26,a27,a28,a29,a30,a31,a32,a33,a34,a35,a36,a37,a38,a39,a40,a41,a42,a43,a44,a45,a46,a47,a48,a49,a50,a51,a52,a53,a54,a55,a56,a57,a58,a59,a60,a61,a62,a63,a64,a65,a66,a67,a68,a69,a70,a71,a72,a73,a74,a75,a76,a77,a78,a79,a80,a81,a82,a83,a84,a85,a86,a87,a88,a89,a90,a91,a92,a93,a94,a95,a96,a97,a98,a99,a100,a101,a102,a103,a104,a105,a106,a107,a108,a109,a110,a111,a112,a113,a114,a115,a116,a117,a118,a119,a120,a121,a122,a123,a124,a125,a126,a127,a128,a129,a130,a131,a132,a133,a134,a135,a136,a137,a138,a139,a140,a141,a142,a143,a144,a145,a146,a147,a148,a149,a150,a151,a152,a153,a154,a155,a156,a157,a158,a159,a160,a161,a162,a163,a164,a165,a166,a167,a168,a169,a170,a171,a172,a173,a174,a175,a176,a177,a178,a179,a180,a181,a182,a183,a184,a185,a186,a187,a188,a189,a190,a191,a192,a193,a194,a195,a196,a197,a198,a199,a200,a201,a202,a203,a204,a205,a206,a207,a208,a209,a210,a211,a212,a213,a214,a215,a216,a217,a218,a219,a220,a221,a222,a223,a224,a225,a226,a227,a228,a229,a230,a231,a232,a233,a234,a235,a236,a237,a238,a239,a240,a241,a242,a243,a244,a245,a246,a247,a248,a249,a250,a251,a252,a253,a254,a255,a256,a257,a258,a259,a260,a261,a262,a263,a264,a265,a266,a267,a268,a269,a270,a271,a272,a273,a274,a275,a276,a277,a278,a279,a280,a281,a282,a283,a284,a285,a286,a287,a288,a289,a290,a291,a292,a293,a294,a295,a296,a297,a298,a299,a300,a301,a302,a303,a304,a305,a306,a307,a308,a309,a310,a311,a312,a313,a314,a315,a316,a317,a318,a319,a320,a321,a322,a323,a324,a325,a326,a327,a328,a329,a330,a331,a332,a333,a334,a335,a336,a337,a338,a339,a340,a341,a342,a343,a344,a345,a346,a347,a348,a349,a350,a351,a352,a353,a354,a355,a356,a357,a358,a359,a360,a361,a362,a363,a364,a365,a366,a367,a368,a369,a370,a371,a372,a373,a374,a375,a376,a377,a378,a379,a380,a381,a382,a383,a384,a385,a386,a387,a388,a389,a390,a391,a392,a393,a394,a395,a396,a397,a398,a399,a400,a401,a402,a403,a404,a405,a406,a407,a408,a409,a410,a411,a412,a413,a414,a415,a416,a417,a418,a419,a420,a421,a422,a423,a424,a425,a426,a427,a428,a429,a430,a431,a432,a433,a434,a435,a436,a437,a438,a439,a440,a441,a442,a443,a444,a445,a446,a447,a448,a449,a450,a451,a452,a453,a454,a455,a456,a457,a458,a459,a460,a461,a462,a463,a464,a465,a466,a467,a468,a469,a470,a471,a472,a473,a474,a475,a476,a477,a478,a479,a480,a481,a482,a483,a484,a485,a486,a487,a488,a489,a490,a491,a492,a493,a494,a495,a496,a497,a498,a499,a500,a501,a502,a503,a504,a505,a506,a507,a508,a509,a510,a511,a512,a513,a514,a515,a516,a517,a518,a519,a520,a521,a522,a523,a524,a525,a526,a527,a528,a529,a530,a531,a532,a533,a534,a535,a536,a537,a538,a539,a540,a541,a542,a543,a544,a545,a546,a547,a548,a549,a550,a551,a552,a553,a554,a555,a556,a557,a558,a559,a560,a561,a562,a563,a564,a565,a566,a567,a568,a569,a570,a571,a572,a573,a574,a575,a576,a577,a578,a579,a580,a581,a582,a583,a584,a585,a586,a587,a588,a589,a590,a591,a592,a593,a594,a595,a596,a597,a598,a599,a600,a601,a602,a603,a604,a605,a606,a607,a608,a609,a610,a611,a612,a613,a614,a615,a616,a617,a618,a619,a620,a621,a622,a623,a624,a625,a626,a627,a628,a629,a630,a631,a632,a633,a634,a635,a636,a637,a638,a639,a640,a641,a642,a643,a644,a645,a646,a647,a648,a649,a650,a651,a652,a653,a654,a655,a656,a657,a658,a659,a660,a661,a662,a663,a664,a665,a666,a667,a668,a669,a670,a671,a672,a673,a674,a675,a676,a677,a678,a679,a680,a681,a682,a683,a684,a685,a686,a687,a688,a689,a690,a691,a692,a693,a694,a695,a696,a697,a698,a699,a700,a701,a702,a703,a704,a705,a706,a707,a708,a709,a710,a711,a712,a713,a714,a715,a716,a717,a718,a719,a720,a721,a722,a723,a724,a725,a726,a727,a728,a729,a730,a731,a732,a733,a734,a735,a736,a737,a738,a739,a740,a741,a742,a743,a744,a745,a746,a747,a748,a749,a750,a751,a752,a753,a754,a755,a756,a757,a758,a759,a760,a761,a762,a763,a764,a765,a766,a767,a768,a769,a770,a771,a772,a773,a774,a775,a776,a777,a778,a779,a780,a781,a782,a783,a784,a785,a786,a787,a788,a789,a790,a791,a792,a793,a794,a795,a796,a797,a798,a799,a800,a801,a802,a803,a804,a805,a806,a807,a808,a809,a810,a811,a812,a813,a814,a815,a816,a817,a818,a819,a820,a821,a822,a823,a824,a825,a826,a827,a828,a829,a830,a831,a832,a833,a834,a835,a836,a837,a838,a839,a840,a841,a842,a843,a844,a845,a846,a847,a848,a849,a850,a851,a852,a853,a854,a855,a856,a857,a858,a859,a860,a861,a862,a863,a864,a865,a866,a867,a868,a869,a870,a871,a872,a873,a874,a875,a876,a877,a878,a879,a880,a881,a882,a883,a884,a885,a886,a887,a888,a889,a890,a891,a892,a893,a894,a895,a896,a897,a898,a899,a900,a901,a902,a903,a904,a905,a906,a907,a908,a909,a910,a911,a912,a913,a914,a915,a916,a917,a918,a919,a920,a921,a922,a923,a924,a925,a926,a927,a928,a929,a930,a931,a932,a933,a934,a935,a936,a937,a938,a939,a940,a941,a942,a943,a944,a945,a946,a947,a948,a949,a950,a951,a952,a953,a954,a955,a956,a957,a958,a959,a960,a961,a962,a963,a964,a965,a966,a967,a968,a969,a970,a971,a972,a973,a974,a975,a976,a977,a978,a979,a980,a981,a982,a983,a984,a985,a986,a987,a988,a989,a990,a991,a992,a993,a994,a995,a996,a997,a998,a999,a1000
}
letting weight be function (
a1 --> 576,a2 --> 168,a3 --> 864,a4 --> 126,a5 --> 105,a6 --> 192,a7 --> 105,a8 --> 210,a9 --> 288,a10 --> 63,a11 --> 960,a12 --> 126,a13 --> 126,a14 --> 168,a15 --> 384,a16 --> 960,a17 --> 84,a18 --> 210,a19 --> 147,a20 --> 84,a21 --> 960,a22 --> 126,a23 --> 147,a24 --> 288,a25 --> 288,a26 --> 63,a27 --> 126,a28 --> 960,a29 --> 288,a30 --> 384,a31 --> 288,a32 --> 168,a33 --> 189,a34 --> 672,a35 --> 864,a36 --> 168,a37 --> 288,a38 --> 126,a39 --> 864,a40 --> 21,a41 --> 768,a42 --> 960,a43 --> 864,a44 --> 63,a45 --> 105,a46 --> 576,a47 --> 147,a48 --> 147,a49 --> 96,a50 --> 189,a51 --> 864,a52 --> 147,a53 --> 21,a54 --> 189,a55 --> 42,a56 --> 192,a57 --> 126,a58 --> 42,a59 --> 864,a60 --> 189,a61 --> 210,a62 --> 126,a63 --> 672,a64 --> 21,a65 --> 105,a66 --> 96,a67 --> 126,a68 --> 210,a69 --> 189,a70 --> 21,a71 --> 288,a72 --> 672,a73 --> 768,a74 --> 63,a75 --> 960,a76 --> 864,a77 --> 96,a78 --> 147,a79 --> 21,a80 --> 672,a81 --> 960,a82 --> 63,a83 --> 21,a84 --> 168,a85 --> 576,a86 --> 576,a87 --> 672,a88 --> 960,a89 --> 210,a90 --> 480,a91 --> 42,a92 --> 42,a93 --> 960,a94 --> 21,a95 --> 576,a96 --> 768,a97 --> 288,a98 --> 480,a99 --> 864,a100 --> 864,a101 --> 126,a102 --> 192,a103 --> 210,a104 --> 96,a105 --> 960,a106 --> 672,a107 --> 84,a108 --> 192,a109 --> 63,a110 --> 864,a111 --> 126,a112 --> 96,a113 --> 21,a114 --> 105,a115 --> 768,a116 --> 21,a117 --> 288,a118 --> 126,a119 --> 672,a120 --> 105,a121 --> 147,a122 --> 96,a123 --> 168,a124 --> 147,a125 --> 768,a126 --> 960,a127 --> 84,a128 --> 168,a129 --> 84,a130 --> 576,a131 --> 768,a132 --> 21,a133 --> 576,a134 --> 63,a135 --> 576,a136 --> 480,a137 --> 21,a138 --> 63,a139 --> 63,a140 --> 960,a141 --> 864,a142 --> 84,a143 --> 63,a144 --> 384,a145 --> 210,a146 --> 84,a147 --> 864,a148 --> 960,a149 --> 21,a150 --> 63,a151 --> 768,a152 --> 96,a153 --> 126,a154 --> 21,a155 --> 576,a156 --> 576,a157 --> 864,a158 --> 105,a159 --> 864,a160 --> 288,a161 --> 960,a162 --> 168,a163 --> 126,a164 --> 768,a165 --> 105,a166 --> 147,a167 --> 576,a168 --> 192,a169 --> 288,a170 --> 210,a171 --> 576,a172 --> 288,a173 --> 672,a174 --> 147,a175 --> 384,a176 --> 192,a177 --> 126,a178 --> 864,a179 --> 63,a180 --> 864,a181 --> 960,a182 --> 63,a183 --> 480,a184 --> 960,a185 --> 189,a186 --> 63,a187 --> 672,a188 --> 288,a189 --> 480,a190 --> 189,a191 --> 288,a192 --> 21,a193 --> 147,a194 --> 84,a195 --> 288,a196 --> 480,a197 --> 147,a198 --> 192,a199 --> 147,a200 --> 864,a201 --> 768,a202 --> 147,a203 --> 864,a204 --> 864,a205 --> 288,a206 --> 210,a207 --> 42,a208 --> 126,a209 --> 84,a210 --> 864,a211 --> 105,a212 --> 288,a213 --> 384,a214 --> 576,a215 --> 960,a216 --> 480,a217 --> 768,a218 --> 384,a219 --> 42,a220 --> 105,a221 --> 84,a222 --> 192,a223 --> 192,a224 --> 672,a225 --> 168,a226 --> 480,a227 --> 210,a228 --> 42,a229 --> 480,a230 --> 960,a231 --> 480,a232 --> 21,a233 --> 21,a234 --> 84,a235 --> 105,a236 --> 672,a237 --> 480,a238 --> 189,a239 --> 147,a240 --> 147,a241 --> 189,a242 --> 384,a243 --> 864,a244 --> 384,a245 --> 96,a246 --> 42,a247 --> 210,a248 --> 126,a249 --> 768,a250 --> 480,a251 --> 126,a252 --> 147,a253 --> 96,a254 --> 384,a255 --> 384,a256 --> 189,a257 --> 189,a258 --> 168,a259 --> 960,a260 --> 189,a261 --> 147,a262 --> 126,a263 --> 105,a264 --> 42,a265 --> 960,a266 --> 168,a267 --> 63,a268 --> 288,a269 --> 147,a270 --> 168,a271 --> 105,a272 --> 168,a273 --> 576,a274 --> 63,a275 --> 96,a276 --> 84,a277 --> 189,a278 --> 126,a279 --> 288,a280 --> 96,a281 --> 210,a282 --> 960,a283 --> 42,a284 --> 384,a285 --> 63,a286 --> 288,a287 --> 105,a288 --> 63,a289 --> 768,a290 --> 168,a291 --> 84,a292 --> 63,a293 --> 63,a294 --> 192,a295 --> 864,a296 --> 42,a297 --> 96,a298 --> 480,a299 --> 192,a300 --> 672,a301 --> 960,a302 --> 960,a303 --> 768,a304 --> 126,a305 --> 189,a306 --> 189,a307 --> 384,a308 --> 126,a309 --> 42,a310 --> 210,a311 --> 84,a312 --> 480,a313 --> 384,a314 --> 126,a315 --> 210,a316 --> 288,a317 --> 126,a318 --> 288,a319 --> 960,a320 --> 480,a321 --> 42,a322 --> 105,a323 --> 105,a324 --> 168,a325 --> 864,a326 --> 96,a327 --> 288,a328 --> 96,a329 --> 63,a330 --> 189,a331 --> 21,a332 --> 192,a333 --> 63,a334 --> 105,a335 --> 96,a336 --> 672,a337 --> 192,a338 --> 147,a339 --> 105,a340 --> 768,a341 --> 21,a342 --> 96,a343 --> 84,a344 --> 96,a345 --> 84,a346 --> 105,a347 --> 147,a348 --> 84,a349 --> 105,a350 --> 147,a351 --> 288,a352 --> 864,a353 --> 168,a354 --> 84,a355 --> 960,a356 --> 384,a357 --> 42,a358 --> 210,a359 --> 480,a360 --> 126,a361 --> 63,a362 --> 210,a363 --> 96,a364 --> 576,a365 --> 105,a366 --> 768,a367 --> 768,a368 --> 105,a369 --> 96,a370 --> 576,a371 --> 42,a372 --> 672,a373 --> 288,a374 --> 576,a375 --> 189,a376 --> 63,a377 --> 960,a378 --> 480,a379 --> 105,a380 --> 189,a381 --> 105,a382 --> 105,a383 --> 672,a384 --> 672,a385 --> 126,a386 --> 42,a387 --> 192,a388 --> 960,a389 --> 189,a390 --> 42,a391 --> 288,a392 --> 147,a393 --> 480,a394 --> 192,a395 --> 147,a396 --> 864,a397 --> 168,a398 --> 168,a399 --> 42,a400 --> 105,a401 --> 960,a402 --> 960,a403 --> 168,a404 --> 21,a405 --> 480,a406 --> 768,a407 --> 672,a408 --> 126,a409 --> 105,a410 --> 672,a411 --> 147,a412 --> 384,a413 --> 384,a414 --> 672,a415 --> 960,a416 --> 147,a417 --> 384,a418 --> 768,a419 --> 126,a420 --> 84,a421 --> 288,a422 --> 126,a423 --> 288,a424 --> 168,a425 --> 96,a426 --> 960,a427 --> 84,a428 --> 768,a429 --> 168,a430 --> 21,a431 --> 168,a432 --> 210,a433 --> 126,a434 --> 210,a435 --> 672,a436 --> 126,a437 --> 189,a438 --> 960,a439 --> 84,a440 --> 21,a441 --> 210,a442 --> 168,a443 --> 288,a444 --> 864,a445 --> 63,a446 --> 189,a447 --> 63,a448 --> 864,a449 --> 63,a450 --> 21,a451 --> 147,a452 --> 168,a453 --> 168,a454 --> 192,a455 --> 96,a456 --> 960,a457 --> 864,a458 --> 384,a459 --> 672,a460 --> 960,a461 --> 384,a462 --> 864,a463 --> 768,a464 --> 96,a465 --> 21,a466 --> 288,a467 --> 672,a468 --> 192,a469 --> 672,a470 --> 576,a471 --> 84,a472 --> 147,a473 --> 864,a474 --> 84,a475 --> 210,a476 --> 126,a477 --> 192,a478 --> 192,a479 --> 384,a480 --> 189,a481 --> 576,a482 --> 168,a483 --> 210,a484 --> 768,a485 --> 84,a486 --> 63,a487 --> 288,a488 --> 210,a489 --> 168,a490 --> 21,a491 --> 864,a492 --> 576,a493 --> 168,a494 --> 288,a495 --> 21,a496 --> 105,a497 --> 288,a498 --> 960,a499 --> 288,a500 --> 864,a501 --> 189,a502 --> 21,a503 --> 288,a504 --> 864,a505 --> 960,a506 --> 189,a507 --> 864,a508 --> 288,a509 --> 864,a510 --> 960,a511 --> 480,a512 --> 105,a513 --> 105,a514 --> 672,a515 --> 168,a516 --> 21,a517 --> 210,a518 --> 105,a519 --> 864,a520 --> 63,a521 --> 189,a522 --> 384,a523 --> 21,a524 --> 210,a525 --> 288,a526 --> 864,a527 --> 384,a528 --> 126,a529 --> 864,a530 --> 84,a531 --> 168,a532 --> 84,a533 --> 768,a534 --> 96,a535 --> 147,a536 --> 672,a537 --> 384,a538 --> 96,a539 --> 480,a540 --> 105,a541 --> 384,a542 --> 192,a543 --> 768,a544 --> 189,a545 --> 960,a546 --> 672,a547 --> 672,a548 --> 768,a549 --> 105,a550 --> 168,a551 --> 63,a552 --> 126,a553 --> 84,a554 --> 147,a555 --> 105,a556 --> 147,a557 --> 384,a558 --> 63,a559 --> 96,a560 --> 21,a561 --> 960,a562 --> 105,a563 --> 189,a564 --> 84,a565 --> 147,a566 --> 126,a567 --> 210,a568 --> 864,a569 --> 480,a570 --> 768,a571 --> 960,a572 --> 126,a573 --> 480,a574 --> 288,a575 --> 96,a576 --> 576,a577 --> 42,a578 --> 96,a579 --> 210,a580 --> 192,a581 --> 768,a582 --> 84,a583 --> 105,a584 --> 480,a585 --> 192,a586 --> 480,a587 --> 384,a588 --> 42,a589 --> 672,a590 --> 189,a591 --> 768,a592 --> 384,a593 --> 960,a594 --> 126,a595 --> 192,a596 --> 147,a597 --> 63,a598 --> 288,a599 --> 42,a600 --> 210,a601 --> 864,a602 --> 42,a603 --> 192,a604 --> 480,a605 --> 42,a606 --> 288,a607 --> 168,a608 --> 960,a609 --> 96,a610 --> 105,a611 --> 21,a612 --> 63,a613 --> 21,a614 --> 576,a615 --> 147,a616 --> 84,a617 --> 147,a618 --> 288,a619 --> 384,a620 --> 96,a621 --> 864,a622 --> 672,a623 --> 189,a624 --> 168,a625 --> 864,a626 --> 480,a627 --> 864,a628 --> 21,a629 --> 210,a630 --> 576,a631 --> 960,a632 --> 672,a633 --> 210,a634 --> 960,a635 --> 210,a636 --> 42,a637 --> 576,a638 --> 960,a639 --> 864,a640 --> 21,a641 --> 105,a642 --> 189,a643 --> 63,a644 --> 168,a645 --> 384,a646 --> 576,a647 --> 96,a648 --> 84,a649 --> 480,a650 --> 210,a651 --> 960,a652 --> 96,a653 --> 84,a654 --> 147,a655 --> 576,a656 --> 576,a657 --> 126,a658 --> 960,a659 --> 105,a660 --> 192,a661 --> 384,a662 --> 210,a663 --> 672,a664 --> 147,a665 --> 210,a666 --> 864,a667 --> 864,a668 --> 96,a669 --> 960,a670 --> 189,a671 --> 576,a672 --> 192,a673 --> 105,a674 --> 576,a675 --> 126,a676 --> 576,a677 --> 576,a678 --> 21,a679 --> 63,a680 --> 192,a681 --> 147,a682 --> 288,a683 --> 960,a684 --> 288,a685 --> 96,a686 --> 960,a687 --> 147,a688 --> 576,a689 --> 147,a690 --> 480,a691 --> 288,a692 --> 384,a693 --> 480,a694 --> 126,a695 --> 672,a696 --> 96,a697 --> 672,a698 --> 672,a699 --> 189,a700 --> 42,a701 --> 960,a702 --> 960,a703 --> 96,a704 --> 126,a705 --> 960,a706 --> 126,a707 --> 96,a708 --> 21,a709 --> 288,a710 --> 168,a711 --> 126,a712 --> 147,a713 --> 864,a714 --> 672,a715 --> 480,a716 --> 168,a717 --> 576,a718 --> 960,a719 --> 210,a720 --> 42,a721 --> 384,a722 --> 42,a723 --> 147,a724 --> 384,a725 --> 96,a726 --> 84,a727 --> 105,a728 --> 288,a729 --> 63,a730 --> 480,a731 --> 192,a732 --> 288,a733 --> 960,a734 --> 63,a735 --> 864,a736 --> 864,a737 --> 576,a738 --> 168,a739 --> 384,a740 --> 672,a741 --> 768,a742 --> 126,a743 --> 42,a744 --> 384,a745 --> 768,a746 --> 147,a747 --> 864,a748 --> 126,a749 --> 672,a750 --> 105,a751 --> 168,a752 --> 960,a753 --> 192,a754 --> 168,a755 --> 864,a756 --> 960,a757 --> 84,a758 --> 960,a759 --> 96,a760 --> 192,a761 --> 192,a762 --> 192,a763 --> 864,a764 --> 189,a765 --> 576,a766 --> 384,a767 --> 189,a768 --> 168,a769 --> 288,a770 --> 96,a771 --> 210,a772 --> 480,a773 --> 126,a774 --> 960,a775 --> 42,a776 --> 864,a777 --> 126,a778 --> 672,a779 --> 576,a780 --> 96,a781 --> 384,a782 --> 63,a783 --> 126,a784 --> 42,a785 --> 960,a786 --> 21,a787 --> 84,a788 --> 21,a789 --> 147,a790 --> 96,a791 --> 192,a792 --> 288,a793 --> 210,a794 --> 126,a795 --> 864,a796 --> 288,a797 --> 210,a798 --> 105,a799 --> 105,a800 --> 192,a801 --> 864,a802 --> 63,a803 --> 864,a804 --> 576,a805 --> 672,a806 --> 384,a807 --> 96,a808 --> 21,a809 --> 21,a810 --> 84,a811 --> 21,a812 --> 672,a813 --> 960,a814 --> 84,a815 --> 576,a816 --> 63,a817 --> 126,a818 --> 210,a819 --> 480,a820 --> 864,a821 --> 105,a822 --> 147,a823 --> 192,a824 --> 192,a825 --> 63,a826 --> 288,a827 --> 864,a828 --> 63,a829 --> 384,a830 --> 63,a831 --> 192,a832 --> 192,a833 --> 288,a834 --> 63,a835 --> 576,a836 --> 576,a837 --> 210,a838 --> 288,a839 --> 63,a840 --> 96,a841 --> 126,a842 --> 63,a843 --> 210,a844 --> 147,a845 --> 147,a846 --> 288,a847 --> 672,a848 --> 42,a849 --> 42,a850 --> 210,a851 --> 288,a852 --> 210,a853 --> 576,a854 --> 960,a855 --> 960,a856 --> 42,a857 --> 864,a858 --> 126,a859 --> 105,a860 --> 480,a861 --> 480,a862 --> 126,a863 --> 672,a864 --> 63,a865 --> 168,a866 --> 864,a867 --> 84,a868 --> 672,a869 --> 63,a870 --> 480,a871 --> 96,a872 --> 96,a873 --> 210,a874 --> 576,a875 --> 480,a876 --> 168,a877 --> 672,a878 --> 576,a879 --> 672,a880 --> 576,a881 --> 288,a882 --> 189,a883 --> 126,a884 --> 480,a885 --> 126,a886 --> 84,a887 --> 126,a888 --> 960,a889 --> 864,a890 --> 96,a891 --> 168,a892 --> 105,a893 --> 864,a894 --> 105,a895 --> 210,a896 --> 63,a897 --> 210,a898 --> 672,a899 --> 384,a900 --> 864,a901 --> 147,a902 --> 960,a903 --> 168,a904 --> 192,a905 --> 21,a906 --> 126,a907 --> 576,a908 --> 672,a909 --> 384,a910 --> 147,a911 --> 960,a912 --> 576,a913 --> 96,a914 --> 84,a915 --> 63,a916 --> 168,a917 --> 768,a918 --> 480,a919 --> 768,a920 --> 192,a921 --> 480,a922 --> 192,a923 --> 126,a924 --> 672,a925 --> 864,a926 --> 189,a927 --> 576,a928 --> 126,a929 --> 672,a930 --> 960,a931 --> 105,a932 --> 192,a933 --> 864,a934 --> 189,a935 --> 168,a936 --> 21,a937 --> 96,a938 --> 147,a939 --> 147,a940 --> 42,a941 --> 672,a942 --> 192,a943 --> 864,a944 --> 168,a945 --> 147,a946 --> 63,a947 --> 96,a948 --> 288,a949 --> 147,a950 --> 96,a951 --> 210,a952 --> 21,a953 --> 864,a954 --> 960,a955 --> 168,a956 --> 84,a957 --> 960,a958 --> 96,a959 --> 147,a960 --> 21,a961 --> 126,a962 --> 147,a963 --> 384,a964 --> 960,a965 --> 288,a966 --> 168,a967 --> 672,a968 --> 576,a969 --> 672,a970 --> 288,a971 --> 480,a972 --> 126,a973 --> 480,a974 --> 63,a975 --> 168,a976 --> 768,a977 --> 147,a978 --> 192,a979 --> 288,a980 --> 168,a981 --> 192,a982 --> 672,a983 --> 960,a984 --> 768,a985 --> 576,a986 --> 21,a987 --> 576,a988 --> 960,a989 --> 84,a990 --> 126,a991 --> 21,a992 --> 864,a993 --> 768,a994 --> 84,a995 --> 960,a996 --> 672,a997 --> 96,a998 --> 210,a999 --> 189,a1000 --> 960
)
letting gain be function (
a1 --> 708,a2 --> 1464,a3 --> 1062,a4 --> 1098,a5 --> 915,a6 --> 236,a7 --> 915,a8 --> 1830,a9 --> 354,a10 --> 549,a11 --> 1180,a12 --> 1098,a13 --> 1098,a14 --> 1464,a15 --> 472,a16 --> 1180,a17 --> 732,a18 --> 1830,a19 --> 1281,a20 --> 732,a21 --> 1180,a22 --> 1098,a23 --> 1281,a24 --> 354,a25 --> 354,a26 --> 549,a27 --> 1098,a28 --> 1180,a29 --> 354,a30 --> 472,a31 --> 354,a32 --> 1464,a33 --> 1647,a34 --> 826,a35 --> 1062,a36 --> 1464,a37 --> 354,a38 --> 1098,a39 --> 1062,a40 --> 183,a41 --> 944,a42 --> 1180,a43 --> 1062,a44 --> 549,a45 --> 915,a46 --> 708,a47 --> 1281,a48 --> 1281,a49 --> 118,a50 --> 1647,a51 --> 1062,a52 --> 1281,a53 --> 183,a54 --> 1647,a55 --> 366,a56 --> 236,a57 --> 1098,a58 --> 366,a59 --> 1062,a60 --> 1647,a61 --> 1830,a62 --> 1098,a63 --> 826,a64 --> 183,a65 --> 915,a66 --> 118,a67 --> 1098,a68 --> 1830,a69 --> 1647,a70 --> 183,a71 --> 354,a72 --> 826,a73 --> 944,a74 --> 549,a75 --> 1180,a76 --> 1062,a77 --> 118,a78 --> 1281,a79 --> 183,a80 --> 826,a81 --> 1180,a82 --> 549,a83 --> 183,a84 --> 1464,a85 --> 708,a86 --> 708,a87 --> 826,a88 --> 1180,a89 --> 1830,a90 --> 590,a91 --> 366,a92 --> 366,a93 --> 1180,a94 --> 183,a95 --> 708,a96 --> 944,a97 --> 354,a98 --> 590,a99 --> 1062,a100 --> 1062,a101 --> 1098,a102 --> 236,a103 --> 1830,a104 --> 118,a105 --> 1180,a106 --> 826,a107 --> 732,a108 --> 236,a109 --> 549,a110 --> 1062,a111 --> 1098,a112 --> 118,a113 --> 183,a114 --> 915,a115 --> 944,a116 --> 183,a117 --> 354,a118 --> 1098,a119 --> 826,a120 --> 915,a121 --> 1281,a122 --> 118,a123 --> 1464,a124 --> 1281,a125 --> 944,a126 --> 1180,a127 --> 732,a128 --> 1464,a129 --> 732,a130 --> 708,a131 --> 944,a132 --> 183,a133 --> 708,a134 --> 549,a135 --> 708,a136 --> 590,a137 --> 183,a138 --> 549,a139 --> 549,a140 --> 1180,a141 --> 1062,a142 --> 732,a143 --> 549,a144 --> 472,a145 --> 1830,a146 --> 732,a147 --> 1062,a148 --> 1180,a149 --> 183,a150 --> 549,a151 --> 944,a152 --> 118,a153 --> 1098,a154 --> 183,a155 --> 708,a156 --> 708,a157 --> 1062,a158 --> 915,a159 --> 1062,a160 --> 354,a161 --> 1180,a162 --> 1464,a163 --> 1098,a164 --> 944,a165 --> 915,a166 --> 1281,a167 --> 708,a168 --> 236,a169 --> 354,a170 --> 1830,a171 --> 708,a172 --> 354,a173 --> 826,a174 --> 1281,a175 --> 472,a176 --> 236,a177 --> 1098,a178 --> 1062,a179 --> 549,a180 --> 1062,a181 --> 1180,a182 --> 549,a183 --> 590,a184 --> 1180,a185 --> 1647,a186 --> 549,a187 --> 826,a188 --> 354,a189 --> 590,a190 --> 1647,a191 --> 354,a192 --> 183,a193 --> 1281,a194 --> 732,a195 --> 354,a196 --> 590,a197 --> 1281,a198 --> 236,a199 --> 1281,a200 --> 1062,a201 --> 944,a202 --> 1281,a203 --> 1062,a204 --> 1062,a205 --> 354,a206 --> 1830,a207 --> 366,a208 --> 1098,a209 --> 732,a210 --> 1062,a211 --> 915,a212 --> 354,a213 --> 472,a214 --> 708,a215 --> 1180,a216 --> 590,a217 --> 944,a218 --> 472,a219 --> 366,a220 --> 915,a221 --> 732,a222 --> 236,a223 --> 236,a224 --> 826,a225 --> 1464,a226 --> 590,a227 --> 1830,a228 --> 366,a229 --> 590,a230 --> 1180,a231 --> 590,a232 --> 183,a233 --> 183,a234 --> 732,a235 --> 915,a236 --> 826,a237 --> 590,a238 --> 1647,a239 --> 1281,a240 --> 1281,a241 --> 1647,a242 --> 472,a243 --> 1062,a244 --> 472,a245 --> 118,a246 --> 366,a247 --> 1830,a248 --> 1098,a249 --> 944,a250 --> 590,a251 --> 1098,a252 --> 1281,a253 --> 118,a254 --> 472,a255 --> 472,a256 --> 1647,a257 --> 1647,a258 --> 1464,a259 --> 1180,a260 --> 1647,a261 --> 1281,a262 --> 1098,a263 --> 915,a264 --> 366,a265 --> 1180,a266 --> 1464,a267 --> 549,a268 --> 354,a269 --> 1281,a270 --> 1464,a271 --> 915,a272 --> 1464,a273 --> 708,a274 --> 549,a275 --> 118,a276 --> 732,a277 --> 1647,a278 --> 1098,a279 --> 354,a280 --> 118,a281 --> 1830,a282 --> 1180,a283 --> 366,a284 --> 472,a285 --> 549,a286 --> 354,a287 --> 915,a288 --> 549,a289 --> 944,a290 --> 1464,a291 --> 732,a292 --> 549,a293 --> 549,a294 --> 236,a295 --> 1062,a296 --> 366,a297 --> 118,a298 --> 590,a299 --> 236,a300 --> 826,a301 --> 1180,a302 --> 1180,a303 --> 944,a304 --> 1098,a305 --> 1647,a306 --> 1647,a307 --> 472,a308 --> 1098,a309 --> 366,a310 --> 1830,a311 --> 732,a312 --> 590,a313 --> 472,a314 --> 1098,a315 --> 1830,a316 --> 354,a317 --> 1098,a318 --> 354,a319 --> 1180,a320 --> 590,a321 --> 366,a322 --> 915,a323 --> 915,a324 --> 1464,a325 --> 1062,a326 --> 118,a327 --> 354,a328 --> 118,a329 --> 549,a330 --> 1647,a331 --> 183,a332 --> 236,a333 --> 549,a334 --> 915,a335 --> 118,a336 --> 826,a337 --> 236,a338 --> 1281,a339 --> 915,a340 --> 944,a341 --> 183,a342 --> 118,a343 --> 732,a344 --> 118,a345 --> 732,a346 --> 915,a347 --> 1281,a348 --> 732,a349 --> 915,a350 --> 1281,a351 --> 354,a352 --> 1062,a353 --> 1464,a354 --> 732,a355 --> 1180,a356 --> 472,a357 --> 366,a358 --> 1830,a359 --> 590,a360 --> 1098,a361 --> 549,a362 --> 1830,a363 --> 118,a364 --> 708,a365 --> 915,a366 --> 944,a367 --> 944,a368 --> 915,a369 --> 118,a370 --> 708,a371 --> 366,a372 --> 826,a373 --> 354,a374 --> 708,a375 --> 1647,a376 --> 549,a377 --> 1180,a378 --> 590,a379 --> 915,a380 --> 1647,a381 --> 915,a382 --> 915,a383 --> 826,a384 --> 826,a385 --> 1098,a386 --> 366,a387 --> 236,a388 --> 1180,a389 --> 1647,a390 --> 366,a391 --> 354,a392 --> 1281,a393 --> 590,a394 --> 236,a395 --> 1281,a396 --> 1062,a397 --> 1464,a398 --> 1464,a399 --> 366,a400 --> 915,a401 --> 1180,a402 --> 1180,a403 --> 1464,a404 --> 183,a405 --> 590,a406 --> 944,a407 --> 826,a408 --> 1098,a409 --> 915,a410 --> 826,a411 --> 1281,a412 --> 472,a413 --> 472,a414 --> 826,a415 --> 1180,a416 --> 1281,a417 --> 472,a418 --> 944,a419 --> 1098,a420 --> 732,a421 --> 354,a422 --> 1098,a423 --> 354,a424 --> 1464,a425 --> 118,a426 --> 1180,a427 --> 732,a428 --> 944,a429 --> 1464,a430 --> 183,a431 --> 1464,a432 --> 1830,a433 --> 1098,a434 --> 1830,a435 --> 826,a436 --> 1098,a437 --> 1647,a438 --> 1180,a439 --> 732,a440 --> 183,a441 --> 1830,a442 --> 1464,a443 --> 354,a444 --> 1062,a445 --> 549,a446 --> 1647,a447 --> 549,a448 --> 1062,a449 --> 549,a450 --> 183,a451 --> 1281,a452 --> 1464,a453 --> 1464,a454 --> 236,a455 --> 118,a456 --> 1180,a457 --> 1062,a458 --> 472,a459 --> 826,a460 --> 1180,a461 --> 472,a462 --> 1062,a463 --> 944,a464 --> 118,a465 --> 183,a466 --> 354,a467 --> 826,a468 --> 236,a469 --> 826,a470 --> 708,a471 --> 732,a472 --> 1281,a473 --> 1062,a474 --> 732,a475 --> 1830,a476 --> 1098,a477 --> 236,a478 --> 236,a479 --> 472,a480 --> 1647,a481 --> 708,a482 --> 1464,a483 --> 1830,a484 --> 944,a485 --> 732,a486 --> 549,a487 --> 354,a488 --> 1830,a489 --> 1464,a490 --> 183,a491 --> 1062,a492 --> 708,a493 --> 1464,a494 --> 354,a495 --> 183,a496 --> 915,a497 --> 354,a498 --> 1180,a499 --> 354,a500 --> 1062,a501 --> 1647,a502 --> 183,a503 --> 354,a504 --> 1062,a505 --> 1180,a506 --> 1647,a507 --> 1062,a508 --> 354,a509 --> 1062,a510 --> 1180,a511 --> 590,a512 --> 915,a513 --> 915,a514 --> 826,a515 --> 1464,a516 --> 183,a517 --> 1830,a518 --> 915,a519 --> 1062,a520 --> 549,a521 --> 1647,a522 --> 472,a523 --> 183,a524 --> 1830,a525 --> 354,a526 --> 1062,a527 --> 472,a528 --> 1098,a529 --> 1062,a530 --> 732,a531 --> 1464,a532 --> 732,a533 --> 944,a534 --> 118,a535 --> 1281,a536 --> 826,a537 --> 472,a538 --> 118,a539 --> 590,a540 --> 915,a541 --> 472,a542 --> 236,a543 --> 944,a544 --> 1647,a545 --> 1180,a546 --> 826,a547 --> 826,a548 --> 944,a549 --> 915,a550 --> 1464,a551 --> 549,a552 --> 1098,a553 --> 732,a554 --> 1281,a555 --> 915,a556 --> 1281,a557 --> 472,a558 --> 549,a559 --> 118,a560 --> 183,a561 --> 1180,a562 --> 915,a563 --> 1647,a564 --> 732,a565 --> 1281,a566 --> 1098,a567 --> 1830,a568 --> 1062,a569 --> 590,a570 --> 944,a571 --> 1180,a572 --> 1098,a573 --> 590,a574 --> 354,a575 --> 118,a576 --> 708,a577 --> 366,a578 --> 118,a579 --> 1830,a580 --> 236,a581 --> 944,a582 --> 732,a583 --> 915,a584 --> 590,a585 --> 236,a586 --> 590,a587 --> 472,a588 --> 366,a589 --> 826,a590 --> 1647,a591 --> 944,a592 --> 472,a593 --> 1180,a594 --> 1098,a595 --> 236,a596 --> 1281,a597 --> 549,a598 --> 354,a599 --> 366,a600 --> 1830,a601 --> 1062,a602 --> 366,a603 --> 236,a604 --> 590,a605 --> 366,a606 --> 354,a607 --> 1464,a608 --> 1180,a609 --> 118,a610 --> 915,a611 --> 183,a612 --> 549,a613 --> 183,a614 --> 708,a615 --> 1281,a616 --> 732,a617 --> 1281,a618 --> 354,a619 --> 472,a620 --> 118,a621 --> 1062,a622 --> 826,a623 --> 1647,a624 --> 1464,a625 --> 1062,a626 --> 590,a627 --> 1062,a628 --> 183,a629 --> 1830,a630 --> 708,a631 --> 1180,a632 --> 826,a633 --> 1830,a634 --> 1180,a635 --> 1830,a636 --> 366,a637 --> 708,a638 --> 1180,a639 --> 1062,a640 --> 183,a641 --> 915,a642 --> 1647,a643 --> 549,a644 --> 1464,a645 --> 472,a646 --> 708,a647 --> 118,a648 --> 732,a649 --> 590,a650 --> 1830,a651 --> 1180,a652 --> 118,a653 --> 732,a654 --> 1281,a655 --> 708,a656 --> 708,a657 --> 1098,a658 --> 1180,a659 --> 915,a660 --> 236,a661 --> 472,a662 --> 1830,a663 --> 826,a664 --> 1281,a665 --> 1830,a666 --> 1062,a667 --> 1062,a668 --> 118,a669 --> 1180,a670 --> 1647,a671 --> 708,a672 --> 236,a673 --> 915,a674 --> 708,a675 --> 1098,a676 --> 708,a677 --> 708,a678 --> 183,a679 --> 549,a680 --> 236,a681 --> 1281,a682 --> 354,a683 --> 1180,a684 --> 354,a685 --> 118,a686 --> 1180,a687 --> 1281,a688 --> 708,a689 --> 1281,a690 --> 590,a691 --> 354,a692 --> 472,a693 --> 590,a694 --> 1098,a695 --> 826,a696 --> 118,a697 --> 826,a698 --> 826,a699 --> 1647,a700 --> 366,a701 --> 1180,a702 --> 1180,a703 --> 118,a704 --> 1098,a705 --> 1180,a706 --> 1098,a707 --> 118,a708 --> 183,a709 --> 354,a710 --> 1464,a711 --> 1098,a712 --> 1281,a713 --> 1062,a714 --> 826,a715 --> 590,a716 --> 1464,a717 --> 708,a718 --> 1180,a719 --> 1830,a720 --> 366,a721 --> 472,a722 --> 366,a723 --> 1281,a724 --> 472,a725 --> 118,a726 --> 732,a727 --> 915,a728 --> 354,a729 --> 549,a730 --> 590,a731 --> 236,a732 --> 354,a733 --> 1180,a734 --> 549,a735 --> 1062,a736 --> 1062,a737 --> 708,a738 --> 1464,a739 --> 472,a740 --> 826,a741 --> 944,a742 --> 1098,a743 --> 366,a744 --> 472,a745 --> 944,a746 --> 1281,a747 --> 1062,a748 --> 1098,a749 --> 826,a750 --> 915,a751 --> 1464,a752 --> 1180,a753 --> 236,a754 --> 1464,a755 --> 1062,a756 --> 1180,a757 --> 732,a758 --> 1180,a759 --> 118,a760 --> 236,a761 --> 236,a762 --> 236,a763 --> 1062,a764 --> 1647,a765 --> 708,a766 --> 472,a767 --> 1647,a768 --> 1464,a769 --> 354,a770 --> 118,a771 --> 1830,a772 --> 590,a773 --> 1098,a774 --> 1180,a775 --> 366,a776 --> 1062,a777 --> 1098,a778 --> 826,a779 --> 708,a780 --> 118,a781 --> 472,a782 --> 549,a783 --> 1098,a784 --> 366,a785 --> 1180,a786 --> 183,a787 --> 732,a788 --> 183,a789 --> 1281,a790 --> 118,a791 --> 236,a792 --> 354,a793 --> 1830,a794 --> 1098,a795 --> 1062,a796 --> 354,a797 --> 1830,a798 --> 915,a799 --> 915,a800 --> 236,a801 --> 1062,a802 --> 549,a803 --> 1062,a804 --> 708,a805 --> 826,a806 --> 472,a807 --> 118,a808 --> 183,a809 --> 183,a810 --> 732,a811 --> 183,a812 --> 826,a813 --> 1180,a814 --> 732,a815 --> 708,a816 --> 549,a817 --> 1098,a818 --> 1830,a819 --> 590,a820 --> 1062,a821 --> 915,a822 --> 1281,a823 --> 236,a824 --> 236,a825 --> 549,a826 --> 354,a827 --> 1062,a828 --> 549,a829 --> 472,a830 --> 549,a831 --> 236,a832 --> 236,a833 --> 354,a834 --> 549,a835 --> 708,a836 --> 708,a837 --> 1830,a838 --> 354,a839 --> 549,a840 --> 118,a841 --> 1098,a842 --> 549,a843 --> 1830,a844 --> 1281,a845 --> 1281,a846 --> 354,a847 --> 826,a848 --> 366,a849 --> 366,a850 --> 1830,a851 --> 354,a852 --> 1830,a853 --> 708,a854 --> 1180,a855 --> 1180,a856 --> 366,a857 --> 1062,a858 --> 1098,a859 --> 915,a860 --> 590,a861 --> 590,a862 --> 1098,a863 --> 826,a864 --> 549,a865 --> 1464,a866 --> 1062,a867 --> 732,a868 --> 826,a869 --> 549,a870 --> 590,a871 --> 118,a872 --> 118,a873 --> 1830,a874 --> 708,a875 --> 590,a876 --> 1464,a877 --> 826,a878 --> 708,a879 --> 826,a880 --> 708,a881 --> 354,a882 --> 1647,a883 --> 1098,a884 --> 590,a885 --> 1098,a886 --> 732,a887 --> 1098,a888 --> 1180,a889 --> 1062,a890 --> 118,a891 --> 1464,a892 --> 915,a893 --> 1062,a894 --> 915,a895 --> 1830,a896 --> 549,a897 --> 1830,a898 --> 826,a899 --> 472,a900 --> 1062,a901 --> 1281,a902 --> 1180,a903 --> 1464,a904 --> 236,a905 --> 183,a906 --> 1098,a907 --> 708,a908 --> 826,a909 --> 472,a910 --> 1281,a911 --> 1180,a912 --> 708,a913 --> 118,a914 --> 732,a915 --> 549,a916 --> 1464,a917 --> 944,a918 --> 590,a919 --> 944,a920 --> 236,a921 --> 590,a922 --> 236,a923 --> 1098,a924 --> 826,a925 --> 1062,a926 --> 1647,a927 --> 708,a928 --> 1098,a929 --> 826,a930 --> 1180,a931 --> 915,a932 --> 236,a933 --> 1062,a934 --> 1647,a935 --> 1464,a936 --> 183,a937 --> 118,a938 --> 1281,a939 --> 1281,a940 --> 366,a941 --> 826,a942 --> 236,a943 --> 1062,a944 --> 1464,a945 --> 1281,a946 --> 549,a947 --> 118,a948 --> 354,a949 --> 1281,a950 --> 118,a951 --> 1830,a952 --> 183,a953 --> 1062,a954 --> 1180,a955 --> 1464,a956 --> 732,a957 --> 1180,a958 --> 118,a959 --> 1281,a960 --> 183,a961 --> 1098,a962 --> 1281,a963 --> 472,a964 --> 1180,a965 --> 354,a966 --> 1464,a967 --> 826,a968 --> 708,a969 --> 826,a970 --> 354,a971 --> 590,a972 --> 1098,a973 --> 590,a974 --> 549,a975 --> 1464,a976 --> 944,a977 --> 1281,a978 --> 236,a979 --> 354,a980 --> 1464,a981 --> 236,a982 --> 826,a983 --> 1180,a984 --> 944,a985 --> 708,a986 --> 183,a987 --> 708,a988 --> 1180,a989 --> 732,a990 --> 1098,a991 --> 183,a992 --> 1062,a993 --> 944,a994 --> 732,a995 --> 1180,a996 --> 826,a997 --> 118,a998 --> 1830,a999 --> 1647,a1000 --> 1180
)
